\ENCODING=ISO-8859-1
\Problem name: ilog.cplex

Minimize
 obj1: 3 x_{1,2} + 3 x_{1,4} + 5 x_{2,4} + 2 x_{4,3} + 3 x_{2,1} + 3 x_{4,1}
       + 5 x_{4,2} + 2 x_{3,4}
Subject To
 c1:  y0 + y1 + y2 + y3 + y4  = 3
 c2:  x_{0,1} + x_{0,2} + x_{0,3} + x_{0,4} + x_{1,2} + x_{1,4} + x_{2,4}
      + x_{4,3} + x_{1,0} + x_{2,0} + x_{3,0} + x_{4,0} + x_{2,1} + x_{4,1}
      + x_{4,2} + x_{3,4}  = 2
 c3:  x_{0,1} + x_{0,2} + x_{0,3} + x_{0,4}  = 1
 c4:  x_{0,1} + x_{2,1} + x_{4,1} - y1  = 0
 c5:  x_{0,2} + x_{1,2} + x_{4,2} - y2  = 0
 c6:  x_{0,3} + x_{4,3} - y3  = 0
 c7:  x_{0,4} + x_{1,4} + x_{2,4} + x_{3,4} - y4  = 0
 c8:  - 2 x_{0,1} - 2 x_{1,0} + y0 + y1 >= 0
 c9:  - 2 x_{0,2} - 2 x_{2,0} + y0 + y2 >= 0
 c10: - 2 x_{0,3} - 2 x_{3,0} + y0 + y3 >= 0
 c11: - 2 x_{0,4} - 2 x_{4,0} + y0 + y4 >= 0
 c12: - 2 x_{1,2} - 2 x_{2,1} + y1 + y2 >= 0
 c13: - 2 x_{1,4} - 2 x_{4,1} + y1 + y4 >= 0
 c14: - 2 x_{2,4} - 2 x_{4,2} + y2 + y4 >= 0
 c15: - 2 x_{4,3} - 2 x_{3,4} + y3 + y4 >= 0
 c16: f_{0,1} + f_{0,2} + f_{0,3} + f_{0,4}  = 2
 c17: - y1 + f_{0,1} - f_{1,0} + f_{2,1} - f_{1,2} + f_{4,1} - f_{1,4}  = 0
 c18: - y2 + f_{0,2} - f_{2,1} + f_{1,2} - f_{2,0} + f_{4,2} - f_{2,4}  = 0
 c19: - y3 + f_{0,3} - f_{3,0} + f_{4,3} - f_{3,4}  = 0
 c20: - y4 + f_{0,4} - f_{4,1} + f_{1,4} - f_{4,2} + f_{2,4} - f_{4,3}
      + f_{3,4} - f_{4,0}  = 0
 c21: - 2 x_{0,1} + f_{0,1} <= 0
 c22: - 2 x_{1,0} + f_{1,0} <= 0
 c23: - 2 x_{0,2} + f_{0,2} <= 0
 c24: - 2 x_{2,0} + f_{2,0} <= 0
 c25: - 2 x_{0,3} + f_{0,3} <= 0
 c26: - 2 x_{3,0} + f_{3,0} <= 0
 c27: - 2 x_{0,4} + f_{0,4} <= 0
 c28: - 2 x_{4,0} + f_{4,0} <= 0
 c29: - 2 x_{1,2} + f_{1,2} <= 0
 c30: - 2 x_{2,1} + f_{2,1} <= 0
 c31: - 2 x_{1,4} + f_{1,4} <= 0
 c32: - 2 x_{4,1} + f_{4,1} <= 0
 c33: - 2 x_{2,4} + f_{2,4} <= 0
 c34: - 2 x_{4,2} + f_{4,2} <= 0
 c35: - 2 x_{4,3} + f_{4,3} <= 0
 c36: - 2 x_{3,4} + f_{3,4} <= 0
Bounds
 0 <= x_{0,1} <= 1
 0 <= x_{0,2} <= 1
 0 <= x_{0,3} <= 1
 0 <= x_{0,4} <= 1
 0 <= x_{1,2} <= 1
 0 <= x_{1,4} <= 1
 0 <= x_{2,4} <= 1
 0 <= x_{4,3} <= 1
 0 <= x_{1,0} <= 1
 0 <= x_{2,0} <= 1
 0 <= x_{3,0} <= 1
 0 <= x_{4,0} <= 1
 0 <= x_{2,1} <= 1
 0 <= x_{4,1} <= 1
 0 <= x_{4,2} <= 1
 0 <= x_{3,4} <= 1
 0 <= y0 <= 1
 0 <= y1 <= 1
 0 <= y2 <= 1
 0 <= y3 <= 1
 0 <= y4 <= 1
 0 <= f_{0,1} <= 2
 0 <= f_{0,2} <= 2
 0 <= f_{0,3} <= 2
 0 <= f_{0,4} <= 2
 0 <= f_{1,0} <= 2
 0 <= f_{2,1} <= 2
 0 <= f_{1,2} <= 2
 0 <= f_{4,1} <= 2
 0 <= f_{1,4} <= 2
 0 <= f_{2,0} <= 2
 0 <= f_{4,2} <= 2
 0 <= f_{2,4} <= 2
 0 <= f_{3,0} <= 2
 0 <= f_{4,3} <= 2
 0 <= f_{3,4} <= 2
 0 <= f_{4,0} <= 2
Binaries
 x_{0,1}  x_{0,2}  x_{0,3}  x_{0,4}  x_{1,2}  x_{1,4}  x_{2,4}  x_{4,3} 
 x_{1,0}  x_{2,0}  x_{3,0}  x_{4,0}  x_{2,1}  x_{4,1}  x_{4,2}  x_{3,4}  y0 
 y1  y2  y3  y4 
End
